0 225 
1 232 
2 232 
3 230 
4 227 
5 235 
6 229 
7 229 
8 229 
9 221 
10 224 
11 230 
12 228 
13 223 
14 221 
15 217 
16 219 
17 213 
18 209 
19 204 
20 204 
21 201 
22 205 
23 198 
24 198 
25 203 
26 199 
27 200 
28 198 
29 201 
30 195 
31 195 
32 193 
33 191 
34 195 
35 191 
36 185 
37 177 
38 175 
39 170 
40 166 
41 165 
42 165 
43 166 
44 161 
45 160 
46 160 
47 160 
48 167 
49 165 
50 165 
51 158 
52 154 
53 156 
54 154 
55 144 
56 141 
57 145 
58 137 
59 130 
60 129 
61 126 
62 127 
63 126 
64 127 
65 123 
66 123 
67 120 
68 119 
69 120 
70 116 
71 116 
72 113 
73 109 
74 105 
75 101 
76 102 
77 100 
78 99 
79 96 
80 98 
81 95 
82 93 
83 87 
84 90 
85 88 
86 84 
87 82 
88 79 
89 76 
90 72 
91 78 
92 77 
93 76 
94 70 
95 66 
96 70 
97 69 
98 67 
99 66 
100 64 
101 64 
102 60 
103 59 
104 56 
105 53 
106 51 
107 49 
108 46 
109 46 
110 46 
111 48 
112 45 
113 45 
114 46 
115 43 
116 42 
117 39 
118 34 
119 32 
120 31 
121 31 
122 32 
123 33 
124 35 
125 33 
126 29 
127 28 
128 27 
129 27 
130 27 
131 29 
132 25 
133 22 
134 22 
135 22 
136 22 
137 19 
138 16 
139 14 
140 12 
141 12 
142 12 
143 11 
144 9 
145 7 
146 4 
147 5 
148 5 
149 6 
150 4 
151 5 
152 2 
153 2 
154 1 
155 1 
156 0 
157 0 

